
******************************************************************************
This program contains Ipopt, a library for large-scale nonlinear optimization.
 Ipopt is released as open source code under the Eclipse Public License (EPL).
         For more information visit http://projects.coin-or.org/Ipopt
******************************************************************************

This is Ipopt version 3.12.6, running with linear solver ma57.

Number of nonzeros in equality constraint Jacobian...:        0
Number of nonzeros in inequality constraint Jacobian.:        0
Number of nonzeros in Lagrangian Hessian.............:    59997

Total number of variables............................:    20000
                     variables with only lower bounds:        0
                variables with lower and upper bounds:        0
                     variables with only upper bounds:        0
Total number of equality constraints.................:        0
Total number of inequality constraints...............:        0
        inequality constraints with only lower bounds:        0
   inequality constraints with lower and upper bounds:        0
        inequality constraints with only upper bounds:        0

iter    objective    inf_pr   inf_du lg(mu)  ||d||  lg(rg) alpha_du alpha_pr  ls
   0  1.7640216e+05 0.00e+00 1.00e+02  -1.0 0.00e+00    -  0.00e+00 0.00e+00   0
   1  2.7738436e-01 0.00e+00 4.98e-03  -1.0 1.93e+00    -  1.00e+00 1.00e+00f  1
   2  9.4071930e-02 0.00e+00 1.78e-03  -3.8 4.94e-02    -  1.00e+00 1.00e+00f  1
   3  3.1903486e-02 0.00e+00 6.38e-04  -3.8 4.68e-02    -  1.00e+00 1.00e+00f  1
   4  1.0819725e-02 0.00e+00 2.28e-04  -5.7 4.43e-02    -  1.00e+00 1.00e+00f  1
   5  3.6693936e-03 0.00e+00 8.18e-05  -5.7 4.20e-02    -  1.00e+00 1.00e+00f  1
   6  1.2444355e-03 0.00e+00 2.93e-05  -5.7 3.98e-02    -  1.00e+00 1.00e+00f  1
   7  4.2203694e-04 0.00e+00 1.05e-05  -5.7 3.77e-02    -  1.00e+00 1.00e+00f  1
   8  1.4312931e-04 0.00e+00 3.75e-06  -8.6 3.57e-02    -  1.00e+00 1.00e+00f  1
   9  4.8540761e-05 0.00e+00 1.34e-06  -8.6 3.38e-02    -  1.00e+00 1.00e+00f  1
iter    objective    inf_pr   inf_du lg(mu)  ||d||  lg(rg) alpha_du alpha_pr  ls
  10  1.6462080e-05 0.00e+00 4.81e-07  -8.6 3.20e-02    -  1.00e+00 1.00e+00f  1
  11  5.5829374e-06 0.00e+00 1.72e-07  -8.6 3.03e-02    -  1.00e+00 1.00e+00f  1
  12  1.8933970e-06 0.00e+00 6.16e-08  -8.6 2.87e-02    -  1.00e+00 1.00e+00f  1
  13  6.4211963e-07 0.00e+00 2.21e-08  -8.6 2.72e-02    -  1.00e+00 1.00e+00f  1
  14  2.1777177e-07 0.00e+00 7.89e-09  -9.0 2.58e-02    -  1.00e+00 1.00e+00f  1
  15  7.3851162e-08 0.00e+00 2.83e-09  -9.0 2.44e-02    -  1.00e+00 1.00e+00f  1
  16  2.5043707e-08 0.00e+00 1.01e-09  -9.0 2.32e-02    -  1.00e+00 1.00e+00f  1
  17  8.4932002e-09 0.00e+00 3.62e-10  -9.0 2.19e-02    -  1.00e+00 1.00e+00f  1

Number of Iterations....: 17

                                   (scaled)                 (unscaled)
Objective...............:   7.1488789919073738e-12    8.4932001914676482e-09
Dual infeasibility......:   3.6208633250676694e-10    4.3017537603525538e-07
Constraint violation....:   0.0000000000000000e+00    0.0000000000000000e+00
Complementarity.........:   0.0000000000000000e+00    0.0000000000000000e+00
Overall NLP error.......:   3.6208633250676694e-10    4.3017537603525538e-07


Number of objective function evaluations             = 18
Number of objective gradient evaluations             = 18
Number of equality constraint evaluations            = 0
Number of inequality constraint evaluations          = 0
Number of equality constraint Jacobian evaluations   = 0
Number of inequality constraint Jacobian evaluations = 0
Number of Lagrangian Hessian evaluations             = 17
Total CPU secs in IPOPT (w/o function evaluations)   =      0.407
Total CPU secs in NLP function evaluations           =      0.097

EXIT: Optimal Solution Found.

 ** SUBROUTINE CUTEST_csetup: Warning. The problem has no general constraints. 
 ** Other tools may be preferable ** 

************************ CUTEst statistics ************************


 Package used            :  IPOPT
 Problem                 :  BOXPOWER  
 # variables             =           20000
 # constraints           =               0
 # objective functions   =        0.3700000E+02
 # objective gradients   =        0.1900000E+02
 # objective Hessians    =        0.1800000E+02
 # Hessian-vector prdct  =        0.0000000E+00
 # constraints functions =        0.0000000E+00
 # constraints gradients =        0.0000000E+00
 # constraints Hessians  =        0.0000000E+00
 Exit code               =               0
 Final f                 =   0.8493200E-08
 Set up time             =            0.31 seconds
 Solve time              =            1.20 seconds


******************************************************************

System Time =       0.3939999938 s.
